c Created with the Wolfram Language : www.wolfram.com
c 
p edge 70 457
e 3 4
e 2 5
e 2 6
e 3 6
e 2 7
e 6 7
e 5 8
e 7 8
e 7 9
e 2 10
e 6 10
e 3 11
e 10 11
e 1 12
e 3 12
e 5 12
e 6 12
e 8 12
e 1 13
e 11 14
e 5 15
e 7 15
e 8 15
e 10 15
e 1 16
e 5 16
e 7 16
e 11 16
e 12 16
e 13 17
e 14 17
e 1 18
e 15 18
e 4 19
e 5 19
e 6 19
e 9 19
e 13 19
e 15 19
e 16 19
e 5 20
e 11 20
e 14 20
e 4 21
e 5 21
e 6 21
e 12 21
e 16 21
e 20 21
e 2 22
e 15 22
e 17 22
e 19 22
e 7 23
e 13 23
e 16 23
e 20 23
e 21 23
e 9 24
e 13 24
e 15 24
e 18 24
e 20 24
e 21 24
e 4 25
e 9 25
e 17 25
e 18 25
e 7 26
e 16 26
e 21 26
e 22 26
e 24 26
e 3 27
e 8 27
e 10 27
e 25 27
e 1 28
e 10 28
e 17 28
e 25 28
e 5 29
e 14 29
e 15 29
e 22 29
e 4 30
e 13 30
e 23 30
e 27 30
e 28 30
e 1 31
e 4 31
e 5 31
e 6 31
e 7 31
e 10 31
e 11 31
e 15 31
e 16 31
e 26 31
e 28 31
e 15 32
e 16 32
e 17 32
e 19 32
e 20 32
e 26 32
e 29 32
e 4 33
e 5 33
e 10 33
e 30 33
e 9 34
e 12 34
e 14 34
e 18 34
e 22 34
e 25 34
e 1 35
e 2 35
e 6 35
e 8 35
e 12 35
e 17 35
e 29 35
e 3 36
e 10 36
e 13 36
e 16 36
e 21 36
e 24 36
e 28 36
e 2 37
e 3 37
e 25 37
e 29 37
e 30 37
e 34 37
e 2 38
e 11 38
e 13 38
e 19 38
e 28 38
e 33 38
e 9 39
e 17 39
e 18 39
e 23 39
e 30 39
e 32 39
e 37 39
e 38 39
e 9 40
e 10 40
e 12 40
e 20 40
e 21 40
e 28 40
e 33 40
e 36 40
e 39 40
e 3 41
e 6 41
e 7 41
e 13 41
e 16 41
e 27 41
e 33 41
e 40 41
e 3 42
e 5 42
e 16 42
e 20 42
e 25 42
e 34 42
e 36 42
e 37 42
e 40 42
e 2 43
e 3 43
e 7 43
e 19 43
e 23 43
e 29 43
e 6 44
e 10 44
e 11 44
e 12 44
e 13 44
e 18 44
e 20 44
e 25 44
e 27 44
e 28 44
e 30 44
e 31 44
e 36 44
e 8 45
e 12 45
e 14 45
e 22 45
e 27 45
e 43 45
e 14 46
e 15 46
e 18 46
e 22 46
e 40 46
e 42 46
e 6 47
e 14 47
e 17 47
e 21 47
e 22 47
e 33 47
e 36 47
e 43 47
e 8 48
e 10 48
e 13 48
e 18 48
e 23 48
e 24 48
e 25 48
e 30 48
e 36 48
e 39 48
e 2 49
e 4 49
e 9 49
e 13 49
e 22 49
e 23 49
e 31 49
e 32 49
e 35 49
e 43 49
e 45 49
e 46 49
e 10 50
e 24 50
e 45 50
e 46 50
e 1 51
e 2 51
e 6 51
e 8 51
e 14 51
e 22 51
e 31 51
e 41 51
e 45 51
e 48 51
e 1 52
e 2 52
e 5 52
e 7 52
e 11 52
e 12 52
e 16 52
e 19 52
e 20 52
e 40 52
e 41 52
e 43 52
e 46 52
e 47 52
e 8 53
e 9 53
e 14 53
e 15 53
e 16 53
e 17 53
e 18 53
e 26 53
e 31 53
e 34 53
e 41 53
e 45 53
e 1 54
e 5 54
e 16 54
e 17 54
e 18 54
e 21 54
e 24 54
e 29 54
e 35 54
e 50 54
e 4 55
e 7 55
e 17 55
e 22 55
e 25 55
e 34 55
e 38 55
e 41 55
e 42 55
e 51 55
e 52 55
e 53 55
e 16 56
e 19 56
e 20 56
e 21 56
e 36 56
e 45 56
e 50 56
e 51 56
e 4 57
e 11 57
e 16 57
e 17 57
e 19 57
e 26 57
e 27 57
e 31 57
e 32 57
e 38 57
e 40 57
e 44 57
e 4 58
e 5 58
e 13 58
e 35 58
e 37 58
e 38 58
e 44 58
e 53 58
e 57 58
e 3 59
e 5 59
e 10 59
e 12 59
e 14 59
e 26 59
e 27 59
e 30 59
e 34 59
e 40 59
e 45 59
e 2 60
e 6 60
e 7 60
e 13 60
e 17 60
e 21 60
e 28 60
e 34 60
e 50 60
e 58 60
e 6 61
e 7 61
e 29 61
e 49 61
e 57 61
e 1 62
e 12 62
e 15 62
e 17 62
e 24 62
e 29 62
e 49 62
e 50 62
e 53 62
e 57 62
e 7 63
e 10 63
e 13 63
e 15 63
e 16 63
e 18 63
e 24 63
e 28 63
e 30 63
e 39 63
e 46 63
e 3 64
e 14 64
e 16 64
e 38 64
e 44 64
e 47 64
e 60 64
e 62 64
e 63 64
e 1 65
e 4 65
e 8 65
e 9 65
e 10 65
e 18 65
e 20 65
e 35 65
e 46 65
e 54 65
e 55 65
e 2 66
e 16 66
e 19 66
e 32 66
e 37 66
e 39 66
e 41 66
e 47 66
e 53 66
e 56 66
e 59 66
e 3 67
e 7 67
e 15 67
e 17 67
e 18 67
e 20 67
e 38 67
e 46 67
e 16 68
e 22 68
e 24 68
e 29 68
e 30 68
e 31 68
e 37 68
e 42 68
e 44 68
e 52 68
e 55 68
e 58 68
e 66 68
e 5 69
e 15 69
e 16 69
e 18 69
e 27 69
e 29 69
e 39 69
e 46 69
e 47 69
e 59 69
e 4 70
e 9 70
e 14 70
e 16 70
e 19 70
e 23 70
e 29 70
e 37 70
e 41 70
e 45 70
e 48 70
e 51 70
e 52 70
e 53 70
e 60 70
e 62 70
e 65 70
e 66 70
